30
493
327
false
0.25
6 11 2 10 32 45 39 9 27 38 22 25 34 36 39 46 30 45 39 23 42 18 7 41 41 42 7 10 26 43
48 98 36 24 66 78 75 48 53 88 50 18 78 79 42 93 20 11 30 29 68 63 36 31 46 89 61 89 70 39
0 0 64 0 0 0 0 51 58 0 0 0 0 0 0 60 0 0 0 0 0 0 7 42 0 44 0 0 94 21
0 8 0 0 96 0 0 69 0 0 0 0 42 0 0 0 0 0 0 0 0 0 98 0 0 0 45 0 0
0 0 0 0 0 0 0 5 3 0 0 0 0 0 0 0 0 81 20 0 0 0 0 61 0 0 0 0
0 0 0 33 8 0 48 0 5 0 0 0 0 0 0 0 72 0 0 0 0 0 81 0 39 0 89
0 0 0 15 0 0 0 0 0 19 0 0 0 0 0 0 1 0 19 0 0 0 0 0 0 0
0 90 0 0 0 32 0 0 0 0 0 0 0 0 0 0 100 0 0 0 63 35 0 0 0
0 0 0 10 0 66 0 0 0 0 90 0 0 0 0 0 0 48 0 60 0 0 0 0
0 87 0 0 0 0 0 0 43 0 0 55 0 86 84 0 0 0 0 64 0 0 0
0 0 0 46 0 0 0 0 76 0 0 0 0 0 64 65 0 0 19 0 3 0
0 0 0 0 0 31 38 0 0 92 0 0 0 0 0 0 0 0 0 0 0
0 0 55 10 0 0 0 0 0 0 0 22 0 0 0 70 0 0 0 0
0 0 0 0 0 5 0 0 0 0 0 0 0 0 0 57 60 0 0
0 0 0 0 0 0 0 0 0 0 0 0 0 0 0 0 0 49
0 0 0 72 0 0 0 0 0 0 0 0 0 0 0 0 62
0 81 0 0 82 99 59 0 0 0 0 0 0 0 4 0
0 0 0 84 0 47 0 0 99 0 61 0 0 0 0
0 0 0 0 0 0 0 38 9 0 0 0 90 0
0 93 0 0 0 0 0 62 89 0 0 0 0
0 0 0 16 40 99 0 0 0 81 0 0
0 0 0 71 0 0 36 39 0 67 0
0 19 0 0 0 58 0 21 0 0
0 60 0 0 21 68 0 0 0
0 0 0 0 0 0 58 0
0 0 0 0 0 25 0
0 0 0 0 85 0
0 0 58 0 0
0 7 0 32
0 0 0
0 0
0 0 0 0 0 0 0 98 0 57 0 88 61 0 0 0 0 0 26 0 0 0 15 0 0 0 0 0 0
0 0 25 0 46 0 0 26 0 29 0 0 0 0 0 0 25 0 0 0 23 57 0 0 0 18 54 0
0 0 71 81 0 0 78 0 38 0 98 0 0 58 58 72 0 0 0 99 0 0 0 0 0 0 0
0 0 73 0 0 0 50 0 0 39 0 0 0 0 87 0 17 0 0 1 0 0 0 0 79 0
0 31 0 0 0 0 93 0 0 0 0 82 0 0 0 79 0 0 0 18 80 0 97 64 0
0 0 27 0 0 0 0 42 0 0 62 0 0 75 0 0 0 0 0 0 0 0 0 0
0 57 0 10 0 0 0 0 0 0 0 100 0 0 42 0 4 0 0 0 0 0 0
0 0 0 78 0 0 0 0 0 0 0 0 38 0 12 0 67 0 0 0 0 1
0 0 43 0 0 0 16 0 0 0 0 0 0 19 75 0 0 0 0 0 0
0 94 0 0 0 0 0 0 0 0 0 0 0 0 0 22 0 0 0 40
0 96 0 84 0 23 0 0 79 0 39 0 0 0 33 0 12 0 0
0 0 0 9 0 100 81 0 0 0 0 0 51 0 0 0 0 39
0 0 0 0 0 0 0 0 0 0 70 0 0 0 0 9 0
0 0 0 0 0 0 0 0 0 0 0 35 0 0 91 0
0 36 42 14 0 0 0 0 0 0 0 0 91 0 0
0 78 0 0 0 64 0 0 0 96 0 0 0 0
0 23 20 88 0 0 0 43 48 0 0 26 0
0 0 0 0 0 0 0 0 0 0 0 0
0 26 0 0 0 0 0 0 0 0 91
0 0 54 35 0 31 0 73 0 0
0 0 100 74 0 62 0 76 5
0 0 0 0 0 0 0 0
0 0 0 0 0 45 0
0 63 0 0 32 0
0 91 0 13 7
0 0 0 37
0 0 0
0 0
0
0 0 88 0 20 0 0 49 0 36 1 0 0 0 0 0 0 0 0 0 0 0 89 0 0 16 0 0
0 0 0 0 38 0 10 15 0 0 0 0 89 0 0 0 0 0 0 0 0 59 42 0 36 21 77
0 0 0 0 0 0 0 0 65 0 44 71 0 0 0 0 0 26 0 0 0 0 0 92 0 53
0 21 0 0 0 91 79 0 61 0 0 0 70 75 21 0 0 50 12 0 0 0 0 0 0
0 0 0 0 0 0 0 0 0 0 0 0 26 0 0 7 0 82 0 54 0 98 0 0
0 29 0 0 0 0 50 0 0 0 0 0 0 0 72 0 0 0 0 0 0 0 64
0 0 5 91 73 0 30 0 0 0 0 0 9 0 0 99 8 0 0 0 0 0
0 43 0 0 0 0 0 0 0 0 39 0 20 0 0 0 0 0 0 0 0
0 0 0 0 0 0 0 90 0 0 0 0 0 0 0 0 0 0 0 0
0 0 0 0 67 0 44 13 0 23 5 0 0 0 0 38 0 0 0
0 11 0 0 0 12 0 0 0 92 0 69 0 94 0 44 0 0
0 0 0 0 47 0 0 0 0 95 20 0 0 0 0 52 0
0 6 0 68 0 0 0 0 0 0 49 80 12 0 0 0
0 0 13 0 79 0 0 0 0 95 0 0 0 100 0
0 32 0 0 70 0 0 5 82 0 0 0 0 0
0 0 0 97 0 0 0 0 80 17 0 0 0
0 0 93 62 0 0 0 0 0 0 0 0
0 0 0 0 0 0 0 0 0 0 0
0 40 0 0 0 2 0 0 0 0
0 0 0 0 0 0 0 0 0
0 0 0 0 42 0 48 0
0 99 0 24 0 67 91
0 0 0 71 0 0
0 0 10 0 0
0 0 0 0
0 65 0
0 0
0
0 0 0 0 70 0 44 0 0 0 0 0 0 0 0 0 0 100 0 0 0 23 0 95 0 25 0
0 0 0 0 0 0 57 0 13 0 0 0 0 0 0 0 0 0 0 0 97 94 2 0 0 0
0 0 0 0 73 0 0 0 0 0 0 0 0 0 0 0 0 45 0 0 0 91 0 11 11
0 0 0 0 0 0 98 0 0 0 0 53 70 0 50 57 97 0 22 0 0 0 15 0
0 0 0 0 0 58 0 11 0 0 0 0 0 0 0 0 0 9 52 0 0 0 0
0 6 0 0 0 0 0 93 0 0 0 0 46 0 0 0 0 0 0 0 0 0
0 85 42 0 0 0 43 0 0 0 0 0 0 0 77 0 0 0 0 0 40
0 0 0 0 0 1 48 61 0 2 0 99 0 16 0 66 71 0 0 0
0 0 0 0 0 0 0 89 0 0 0 0 0 0 0 0 0 0 34
0 0 30 0 0 0 0 0 0 0 0 0 0 0 0 23 49 100
0 0 0 0 0 0 0 9 0 19 0 0 0 0 89 0 0
0 0 0 0 55 0 0 0 21 74 0 0 0 0 0 0
0 0 0 0 0 26 32 0 83 0 1 0 0 0 0
0 95 0 0 0 0 18 0 0 24 0 0 0 21
0 84 0 0 0 3 0 0 0 0 10 0 18
0 0 0 32 0 0 0 81 0 50 0 0
0 67 0 9 0 0 0 4 67 0 0
0 0 0 0 42 0 0 0 0 0
0 0 57 0 0 0 0 0 91
0 0 0 0 0 0 0 39
0 17 0 0 0 0 0
0 36 0 0 0 0
0 0 0 0 94
0 0 0 0
0 0 0
0 49
0
0 66 0 0 0 0 0 15 5 0 34 62 0 0 20 0 0 0 0 72 56 61 0 0 0 0
0 0 0 0 0 0 0 0 0 0 0 0 52 0 0 0 0 0 0 0 0 0 0 4 98
0 0 95 54 0 0 0 0 0 0 0 0 0 0 58 0 1 93 0 0 45 0 0 0
0 27 0 0 0 0 17 0 51 0 27 0 46 0 97 0 0 3 52 0 0 47 0
0 0 0 31 0 0 45 56 42 0 0 0 46 0 0 0 0 0 0 0 73 0
0 0 0 22 0 0 40 0 0 0 0 0 0 86 0 47 0 0 0 0 0
0 0 0 0 78 0 0 14 5 73 23 0 64 0 0 0 0 0 72 23
0 0 0 0 0 26 25 69 76 0 98 0 0 0 0 0 0 42 0
0 38 5 0 0 0 0 0 0 0 0 0 0 0 0 0 0 0
0 0 0 0 25 0 23 0 0 55 97 0 45 0 0 0 35
0 0 0 0 0 86 0 0 0 0 71 27 3 0 0 0
0 0 0 0 42 0 0 0 0 0 0 72 0 0 0
0 0 0 26 0 0 0 0 0 0 61 0 0 0
0 74 0 0 0 0 0 0 0 0 0 0 0
0 0 0 0 11 0 56 30 33 10 0 0
0 47 0 0 0 0 0 0 0 44 0
0 0 0 65 83 11 0 35 0 0
0 71 0 0 0 0 42 61 79
0 0 0 0 0 5 0 0
0 0 50 1 0 0 9
0 61 18 0 0 62
0 0 0 0 0
0 0 0 0
0 0 90
0 0
0
0 0 0 82 0 34 15 0 0 0 0 0 0 0 0 0 0 0 0 0 0 48 2 0 0
0 0 19 0 0 0 0 35 0 0 0 53 0 0 0 15 0 4 0 63 0 0 0 0
0 25 0 73 0 0 52 0 0 57 0 96 0 0 71 0 0 0 12 0 0 0 0
0 0 0 0 28 0 0 0 70 0 2 0 0 0 0 0 0 0 53 82 0 0
0 0 0 0 36 22 0 0 0 0 0 52 0 47 74 0 0 0 45 0 0
0 0 0 0 0 0 0 0 0 55 0 0 0 0 75 0 0 0 57 0
0 9 0 0 58 0 0 0 0 30 0 0 0 0 46 0 0 0 0
0 0 0 0 0 0 66 0 0 80 0 0 0 0 0 0 0 0
0 0 0 93 15 0 0 63 0 0 30 0 0 0 0 0 0
0 0 0 0 0 0 0 0 24 0 0 0 75 0 0 0
0 0 0 86 0 0 0 0 76 0 0 0 0 12 0
0 0 90 0 0 14 9 0 0 79 0 0 76 0
0 0 63 0 0 0 0 0 0 0 0 0 0
0 0 0 0 0 0 0 0 7 0 93 0
0 94 1 0 29 0 0 0 100 0 0
0 0 0 0 0 0 0 0 0 75
0 0 0 0 0 0 0 73 0
0 0 0 0 35 72 0 90
0 0 0 33 0 91 0
0 0 0 0 51 22
0 0 0 0 0
0 0 0 21
0 47 65
0 0
0
0 0 0 36 64 24 54 0 0 0 38 0 4 36 0 74 0 0 22 0 0 0 0 0
0 0 0 0 62 0 0 0 0 0 0 0 0 0 42 0 0 29 0 0 0 0 0
0 0 0 77 27 0 0 0 0 0 0 0 0 1 0 0 0 0 0 0 0 14
0 0 0 0 5 0 0 0 0 44 46 0 26 95 0 0 0 0 64 0 89
0 0 0 5 0 0 0 45 0 0 99 0 0 13 0 96 0 0 0 0
0 0 0 0 0 33 0 0 0 0 0 0 71 0 0 80 0 0 16
0 0 0 0 0 0 2 0 89 0 0 56 42 0 0 0 2 48
0 0 0 0 0 0 0 0 0 0 0 0 96 0 0 0 0
0 0 0 17 0 0 0 0 0 56 0 0 0 0 0 25
0 0 0 0 0 0 58 10 0 0 0 0 86 0 57
0 0 61 0 0 0 0 0 74 0 0 76 0 43
0 0 32 47 0 0 0 0 6 0 0 0 0
0 16 0 0 0 0 27 0 89 0 13 32
0 0 0 0 70 0 85 72 30 0 0
0 72 0 0 28 0 0 0 0 37
0 98 0 0 0 0 0 0 0
0 40 0 20 0 0 0 0
0 73 0 21 0 0 0
0 0 5 0 0 0
0 0 83 0 0
0 0 38 98
0 0 0
0 64
0
0 0 37 0 0 36 0 0 35 2 72 0 0 0 0 0 0 80 18 29 0 0 0
0 0 75 0 0 0 0 44 0 0 28 0 0 8 0 56 66 0 0 0 9 15
0 0 68 15 0 0 0 0 73 0 0 0 0 0 0 0 0 0 0 57 91
0 0 0 0 0 0 0 0 0 0 40 0 21 0 31 0 0 97 0 2
0 0 0 0 0 0 0 0 0 0 0 0 35 0 0 0 20 0 0
0 0 0 0 0 0 0 0 0 0 0 0 65 0 6 0 0 0
0 0 0 0 66 0 0 67 0 0 0 1 0 0 0 26 0
0 0 0 70 89 0 0 0 0 0 0 11 55 0 0 3
0 0 0 0 2 20 0 0 0 0 88 0 0 0 0
0 21 0 74 0 40 7 0 0 0 0 0 0 0
0 0 47 0 0 0 0 0 9 0 0 0 0
0 0 0 0 41 0 7 64 0 0 0 92
0 83 0 11 0 0 0 0 0 0 0
0 0 35 0 32 98 0 0 0 0
0 0 90 13 0 0 63 0 76
0 0 0 0 0 0 0 0
0 0 0 55 0 0 0
0 0 97 0 86 0
0 0 0 0 0
0 0 0 7
0 0 0
0 0
0
0 0 0 98 0 62 0 60 0 9 0 0 0 26 0 0 0 0 0 0 0 0
0 0 0 51 0 0 14 16 0 0 93 0 0 0 89 41 0 0 0 0 0
0 0 0 3 0 0 29 0 0 0 0 0 0 0 0 0 46 0 0 46
0 0 0 0 0 0 0 75 0 0 54 0 0 25 0 0 0 50 0
0 0 0 92 15 0 0 0 0 0 18 0 0 0 0 0 0 0
0 0 0 0 0 72 70 0 0 2 0 0 0 0 0 89 0
0 0 0 78 0 10 0 93 0 0 0 14 0 0 0 0
0 65 0 0 0 0 0 0 0 0 0 0 6 0 0
0 0 0 0 0 0 0 28 0 18 0 0 0 0
0 0 0 0 0 0 0 0 0 0 0 17 0
0 0 13 0 0 0 0 0 80 73 0 0
0 0 0 68 77 100 52 0 0 0 99
0 0 0 0 65 1 0 39 12 0
0 0 0 42 65 0 69 0 66
0 0 0 0 0 15 85 0
0 66 0 82 90 34 0
0 0 0 0 44 0
0 0 89 0 0
0 41 0 0
0 78 0
0 73
0
0 0 0 0 0 6 0 0 87 0 0 0 85 78 0 0 50 33 0 0 0
0 0 0 0 0 0 0 100 0 0 0 59 0 0 0 0 0 0 0 0
0 0 0 0 0 0 0 16 0 0 21 12 0 0 0 98 74 6 0
0 0 0 0 0 48 77 24 0 0 0 0 0 0 0 0 0 0
0 0 0 62 0 86 0 0 0 68 0 54 0 67 0 0 0
0 60 0 0 0 0 0 66 0 34 0 0 0 0 10 0
0 0 2 0 0 0 45 0 0 89 70 81 0 0 0
0 9 0 0 0 0 0 0 0 0 0 0 35 0
0 0 0 16 0 0 0 0 0 0 0 0 0
0 0 89 0 0 0 0 0 71 0 0 0
0 0 41 0 0 0 0 27 0 0 0
0 0 0 0 0 0 0 0 0 0
0 0 0 0 19 0 0 14 0
0 0 0 0 100 0 51 0
0 0 0 0 0 0 0
0 0 0 0 4 0
0 0 56 0 0
0 0 85 0
0 0 53
0 0
0
0 0 0 3 73 0 0 0 0 0 0 0 93 53 63 0 0 17 0 0
0 27 0 0 0 0 0 0 0 0 0 0 0 0 0 75 0 76 8
0 0 0 0 7 0 58 0 19 14 92 0 0 0 0 0 0 0
0 0 70 0 0 91 0 89 0 0 59 0 0 0 9 70 0
0 0 0 0 0 0 0 0 0 0 0 0 0 9 0 0
0 0 0 0 0 0 0 0 0 0 75 0 0 0 90
0 0 13 72 0 0 88 0 0 94 0 11 85 0
0 18 0 0 0 0 0 0 61 0 5 0 0
0 0 0 0 0 0 0 0 0 6 63 0
0 0 3 4 76 0 0 0 0 40 0
0 0 0 0 0 0 92 0 0 0
0 0 0 0 0 0 0 95 0
0 0 0 0 67 4 0 0
0 0 0 65 0 20 84
0 0 0 62 0 90
0 0 0 0 0
0 0 59 0
0 0 0
0 13
0
0 0 72 33 0 0 61 0 0 98 0 0 0 0 0 0 0 0 0
0 0 0 0 0 0 0 82 0 0 0 0 0 0 0 0 0 0
0 0 0 98 0 0 0 0 0 0 0 0 0 46 0 0 0
0 0 0 45 0 0 0 0 0 0 0 0 0 45 0 31
0 64 0 0 0 0 0 0 0 0 0 0 0 88 0
0 0 0 0 0 0 0 0 42 0 0 0 0 0
0 89 0 0 0 0 0 0 0 0 0 0 0
0 0 0 59 0 0 0 0 0 0 0 67
0 0 0 0 57 0 0 5 18 64 0
0 0 0 0 0 0 0 53 41 0
0 0 0 0 0 0 0 90 0
0 54 0 0 0 0 0 0
0 0 0 0 67 0 0
0 1 0 0 90 0
0 0 75 0 0
0 0 0 0
0 71 0
0 49
0
0 0 0 0 0 51 0 0 59 0 0 0 0 37 84 0 0 0
0 48 50 0 0 0 0 0 0 76 0 0 0 0 0 0 0
0 0 61 0 0 58 0 0 15 21 0 53 79 0 0 0
0 51 81 0 42 0 0 0 0 0 0 0 8 0 0
0 0 24 0 37 57 66 0 0 100 64 0 65 0
0 42 0 0 0 0 0 0 0 0 0 0 0
0 0 19 23 81 0 88 0 85 90 0 0
0 0 64 0 0 0 0 0 0 46 0
0 0 0 0 0 0 18 0 0 47
0 0 0 0 87 0 0 0 0
0 2 0 0 0 0 0 72
0 0 0 0 0 0 82
0 0 0 0 0 82
0 40 0 0 23
0 0 0 92
0 0 0
0 0
0
0 0 93 0 98 0 8 0 0 0 0 0 0 0 96 0 0
0 49 60 0 15 0 0 0 85 0 0 0 0 0 96 0
0 0 46 22 0 21 0 0 0 0 0 0 0 0 0
0 81 0 8 58 0 66 0 0 17 0 0 0 0
0 0 0 0 60 0 95 96 0 0 0 0 0
0 0 0 0 0 0 0 0 0 12 0 0
0 49 22 0 0 59 0 0 0 0 0
0 0 0 0 0 0 0 0 76 0
0 0 0 0 0 96 0 0 0
0 0 56 0 0 0 39 0
0 0 46 0 0 0 0
0 0 0 0 0 0
0 0 0 14 0
0 0 0 0
0 46 0
0 0
0
0 0 63 86 44 0 0 78 0 0 0 0 41 0 0 0
0 0 0 85 0 0 0 0 0 0 51 0 0 35 0
0 0 0 0 0 0 75 66 21 0 0 59 0 0
0 0 0 0 50 0 0 84 0 0 16 0 0
0 59 0 0 0 22 100 0 0 0 49 77
0 0 72 0 0 0 0 1 0 0 0
0 4 0 0 0 81 0 0 26 0
0 0 0 0 0 0 41 0 0
0 0 0 0 0 0 40 0
0 0 0 0 0 0 0
0 0 35 0 0 0
0 0 0 17 0
0 0 0 0
0 0 0
0 88
0
0 0 0 0 0 0 0 0 56 0 0 0 0 0 0
0 0 0 0 0 0 0 0 0 0 31 0 57 0
0 0 0 0 0 93 0 0 0 0 0 0 0
0 0 0 18 0 0 0 0 0 0 77 30
0 0 0 0 0 0 0 0 0 0 0
0 0 25 0 0 0 0 0 0 0
0 0 68 0 0 0 0 96 0
0 0 0 38 39 0 0 83
0 9 0 0 96 0 0
0 25 0 40 0 0
0 0 0 0 0
0 5 0 0
0 0 68
0 0
0
0 31 0 0 0 0 78 0 77 0 0 0 0 0
0 0 38 0 0 0 0 0 86 71 0 0 0
0 0 22 0 0 0 0 0 63 0 0 0
0 0 61 0 85 0 0 11 0 0 0
0 0 0 0 0 0 21 0 0 86
0 0 0 51 56 0 0 0 0
0 0 0 0 0 1 2 0
0 0 0 27 0 0 22
0 32 76 0 0 0
0 0 30 0 81
0 0 0 0
0 0 12
0 0
0
0 44 0 0 0 0 78 0 0 21 39 3 0
0 0 33 0 0 13 53 0 0 0 0 0
0 40 0 0 56 0 0 0 0 0 0
0 0 0 0 0 0 58 0 29 0
0 0 0 0 0 71 6 0 0
0 0 0 0 0 0 0 0
0 0 47 0 0 0 0
0 0 0 0 0 0
0 0 23 0 0
0 54 0 60
0 0 0
0 0
0
0 26 0 0 0 0 0 0 0 0 0 46
0 0 0 0 45 78 9 0 0 47 0
0 0 0 86 0 0 0 0 0 0
0 0 0 0 0 0 0 0 0
0 37 0 73 0 0 0 0
0 98 20 0 92 0 40
0 43 33 0 0 0
0 0 0 0 74
0 0 0 64
0 0 0
0 14
0
0 0 59 6 74 74 0 45 62 0 75
0 0 0 0 0 0 0 50 60 0
0 0 0 0 0 41 0 30 0
0 0 0 88 0 0 0 0
0 0 57 0 73 0 0
0 0 0 0 0 1
0 86 0 0 0
0 65 0 0
0 0 0
0 9
0
0 0 0 0 0 0 86 0 51 82
0 0 0 88 0 0 0 10 0
0 0 0 0 0 0 0 0
0 0 0 0 80 0 0
0 0 0 0 0 0
0 0 0 0 12
0 0 7 0
0 0 0
0 35
0
0 0 0 0 0 0 0 0 28
0 0 0 0 0 0 0 0
0 0 0 0 0 0 0
0 84 0 0 25 0
0 11 0 0 0
0 57 0 59
0 0 0
0 0
0
0 0 0 0 0 0 78 90
0 0 0 79 0 0 88
0 0 0 0 0 0
0 71 0 0 53
0 0 0 0
0 0 30
0 0
0
0 0 0 0 0 0 30
0 0 95 60 0 0
0 0 0 77 50
0 0 0 26
0 0 0
0 0
0
0 84 0 46 0 0
0 63 0 72 0
0 0 0 36
0 0 0
0 0
0
0 0 0 0 0
0 0 0 0
0 26 0
0 50
0
0 0 0 44
0 0 0
0 26
0
0 0 94
0 0
0
0 0
0
0
6039 5632 4861 5989 5131 5746 5443 5594 5196 5584 4839 5934 4713 5258 4397 5349 5358 5488 6594 5420 5038 5822 4637 6325 5478 6152 5650 5088 5844 5702
1006.5 512.0 2430.5 598.9 160.34375 127.68888888888888 139.56410256410257 621.5555555555555 192.44444444444446 146.94736842105263 219.95454545454547 237.36 138.61764705882354 146.05555555555554 112.74358974358974 116.28260869565217 178.6 121.95555555555555 169.07692307692307 235.65217391304347 119.95238095238095 323.44444444444446 662.4285714285714 154.26829268292684 133.609756097561 146.47619047619048 807.1428571428571 508.8 224.76923076923077 132.6046511627907
